language ESSENCE' 1.0

letting C_FunctionND be
        [[0, 0, 0, 0, 0, 0, 0, 0, 0, 0, 0, 0, 0, 0, 0, 0, 0, 0, 0, 0, 0; int(0..20)],
         [1, 0, 0, 0, 0, 0, 0, 0, 0, 0, 0, 0, 0, 0, 0, 0, 0, 0, 0, 0, 0; int(0..20)],
         [1, 0, 0, 0, 0, 0, 0, 0, 0, 0, 0, 0, 0, 0, 0, 0, 0, 0, 0, 0, 0; int(0..20)],
         [1, 0, 0, 0, 0, 0, 0, 0, 0, 0, 0, 0, 0, 0, 0, 0, 0, 0, 0, 0, 0; int(0..20)],
         [1, 0, 0, 0, 0, 0, 0, 0, 0, 0, 0, 0, 0, 0, 0, 0, 0, 0, 0, 0, 0; int(0..20)],
         [1, 0, 0, 0, 0, 0, 0, 0, 0, 0, 0, 0, 0, 0, 0, 0, 0, 0, 0, 0, 0; int(0..20)],
         [1, 0, 0, 0, 0, 0, 0, 0, 0, 0, 0, 0, 0, 0, 0, 0, 0, 0, 0, 0, 0; int(0..20)],
         [1, 0, 0, 0, 0, 0, 0, 0, 0, 0, 0, 0, 0, 0, 0, 0, 0, 0, 0, 0, 0; int(0..20)],
         [0, 1, 1, 0, 0, 0, 1, 1, 0, 0, 0, 0, 0, 0, 0, 0, 0, 0, 0, 0, 0; int(0..20)],
         [0, 1, 0, 1, 1, 0, 0, 0, 0, 0, 0, 0, 0, 0, 0, 0, 0, 0, 0, 0, 0; int(0..20)],
         [0, 1, 0, 0, 0, 1, 0, 0, 0, 0, 0, 0, 0, 0, 0, 0, 0, 0, 0, 0, 0; int(0..20)],
         [0, 0, 1, 1, 0, 1, 0, 0, 0, 0, 0, 0, 0, 0, 0, 0, 0, 0, 0, 0, 0; int(0..20)],
         [0, 0, 1, 0, 1, 0, 0, 0, 0, 0, 0, 0, 0, 0, 0, 0, 0, 0, 0, 0, 0; int(0..20)],
         [0, 0, 0, 1, 0, 0, 1, 0, 0, 0, 0, 0, 0, 0, 0, 0, 0, 0, 0, 0, 0; int(0..20)],
         [0, 0, 0, 1, 0, 0, 0, 1, 0, 0, 0, 0, 0, 0, 0, 0, 0, 0, 0, 0, 0; int(0..20)],
         [0, 0, 0, 0, 1, 1, 0, 0, 0, 0, 0, 0, 0, 0, 0, 0, 0, 0, 0, 0, 0; int(0..20)],
         [0, 0, 0, 0, 1, 0, 1, 0, 0, 0, 0, 0, 0, 0, 0, 0, 0, 0, 0, 0, 0; int(0..20)],
         [0, 0, 0, 0, 1, 0, 0, 1, 0, 0, 0, 0, 0, 0, 0, 0, 0, 0, 0, 0, 0; int(0..20)],
         [0, 0, 0, 0, 0, 1, 1, 0, 0, 0, 0, 0, 0, 0, 0, 0, 0, 0, 0, 0, 0; int(0..20)],
         [0, 0, 0, 0, 0, 1, 0, 1, 0, 0, 0, 0, 0, 0, 0, 0, 0, 0, 0, 0, 0; int(0..20)],
         [0, 0, 0, 0, 0, 0, 0, 0, 1, 1, 1, 1, 1, 1, 1, 1, 1, 1, 1, 1, 0; int(0..20)];
             int(0..20)]
$ Visualisation for C_FunctionND
$ 0 0 0 0 0 0 0 0 0 0 0 0 0 0 0 0 0 0 0 0 0
$ 1 0 0 0 0 0 0 0 0 0 0 0 0 0 0 0 0 0 0 0 0
$ 1 0 0 0 0 0 0 0 0 0 0 0 0 0 0 0 0 0 0 0 0
$ 1 0 0 0 0 0 0 0 0 0 0 0 0 0 0 0 0 0 0 0 0
$ 1 0 0 0 0 0 0 0 0 0 0 0 0 0 0 0 0 0 0 0 0
$ 1 0 0 0 0 0 0 0 0 0 0 0 0 0 0 0 0 0 0 0 0
$ 1 0 0 0 0 0 0 0 0 0 0 0 0 0 0 0 0 0 0 0 0
$ 1 0 0 0 0 0 0 0 0 0 0 0 0 0 0 0 0 0 0 0 0
$ 0 1 1 0 0 0 1 1 0 0 0 0 0 0 0 0 0 0 0 0 0
$ 0 1 0 1 1 0 0 0 0 0 0 0 0 0 0 0 0 0 0 0 0
$ 0 1 0 0 0 1 0 0 0 0 0 0 0 0 0 0 0 0 0 0 0
$ 0 0 1 1 0 1 0 0 0 0 0 0 0 0 0 0 0 0 0 0 0
$ 0 0 1 0 1 0 0 0 0 0 0 0 0 0 0 0 0 0 0 0 0
$ 0 0 0 1 0 0 1 0 0 0 0 0 0 0 0 0 0 0 0 0 0
$ 0 0 0 1 0 0 0 1 0 0 0 0 0 0 0 0 0 0 0 0 0
$ 0 0 0 0 1 1 0 0 0 0 0 0 0 0 0 0 0 0 0 0 0
$ 0 0 0 0 1 0 1 0 0 0 0 0 0 0 0 0 0 0 0 0 0
$ 0 0 0 0 1 0 0 1 0 0 0 0 0 0 0 0 0 0 0 0 0
$ 0 0 0 0 0 1 1 0 0 0 0 0 0 0 0 0 0 0 0 0 0
$ 0 0 0 0 0 1 0 1 0 0 0 0 0 0 0 0 0 0 0 0 0
$ 0 0 0 0 0 0 0 0 1 1 1 1 1 1 1 1 1 1 1 1 0

letting J_FunctionND be
        [[0, 1, 2, 3, 4, 5, 6, 7, 8, 9, 10, 11, 12, 13, 14, 15, 16, 17, 18, 19, 20; int(0..20)],
         [1, 1, 8, 9, 9, 10, 8, 8, 8, 9, 10, 20, 20, 20, 20, 20, 20, 20, 20, 20, 20; int(0..20)],
         [2, 8, 2, 11, 12, 11, 8, 8, 8, 20, 20, 11, 12, 20, 20, 20, 20, 20, 20, 20, 20; int(0..20)],
         [3, 9, 11, 3, 9, 11, 13, 14, 20, 9, 20, 11, 20, 13, 14, 20, 20, 20, 20, 20, 20; int(0..20)],
         [4, 9, 12, 9, 4, 15, 16, 17, 20, 9, 20, 20, 12, 20, 20, 15, 16, 17, 20, 20, 20; int(0..20)],
         [5, 10, 11, 11, 15, 5, 18, 19, 20, 20, 10, 11, 20, 20, 20, 15, 20, 20, 18, 19, 20; int(0..20)],
         [6, 8, 8, 13, 16, 18, 6, 8, 8, 20, 20, 20, 20, 13, 20, 20, 16, 20, 18, 20, 20; int(0..20)],
         [7, 8, 8, 14, 17, 19, 8, 7, 8, 20, 20, 20, 20, 20, 14, 20, 20, 17, 20, 19, 20; int(0..20)],
         [8, 8, 8, 20, 20, 20, 8, 8, 8, 20, 20, 20, 20, 20, 20, 20, 20, 20, 20, 20, 20; int(0..20)],
         [9, 9, 20, 9, 9, 20, 20, 20, 20, 9, 20, 20, 20, 20, 20, 20, 20, 20, 20, 20, 20; int(0..20)],
         [10, 10, 20, 20, 20, 10, 20, 20, 20, 20, 10, 20, 20, 20, 20, 20, 20, 20, 20, 20, 20; int(0..20)],
         [11, 20, 11, 11, 20, 11, 20, 20, 20, 20, 20, 11, 20, 20, 20, 20, 20, 20, 20, 20, 20; int(0..20)],
         [12, 20, 12, 20, 12, 20, 20, 20, 20, 20, 20, 20, 12, 20, 20, 20, 20, 20, 20, 20, 20; int(0..20)],
         [13, 20, 20, 13, 20, 20, 13, 20, 20, 20, 20, 20, 20, 13, 20, 20, 20, 20, 20, 20, 20; int(0..20)],
         [14, 20, 20, 14, 20, 20, 20, 14, 20, 20, 20, 20, 20, 20, 14, 20, 20, 20, 20, 20, 20; int(0..20)],
         [15, 20, 20, 20, 15, 15, 20, 20, 20, 20, 20, 20, 20, 20, 20, 15, 20, 20, 20, 20, 20; int(0..20)],
         [16, 20, 20, 20, 16, 20, 16, 20, 20, 20, 20, 20, 20, 20, 20, 20, 16, 20, 20, 20, 20; int(0..20)],
         [17, 20, 20, 20, 17, 20, 20, 17, 20, 20, 20, 20, 20, 20, 20, 20, 20, 17, 20, 20, 20; int(0..20)],
         [18, 20, 20, 20, 20, 18, 18, 20, 20, 20, 20, 20, 20, 20, 20, 20, 20, 20, 18, 20, 20; int(0..20)],
         [19, 20, 20, 20, 20, 19, 20, 19, 20, 20, 20, 20, 20, 20, 20, 20, 20, 20, 20, 19, 20; int(0..20)],
         [20, 20, 20, 20, 20, 20, 20, 20, 20, 20, 20, 20, 20, 20, 20, 20, 20, 20, 20, 20, 20; int(0..20)];
             int(0..20)]
$ Visualisation for J_FunctionND
$  0  1  2  3  4  5  6  7  8  9 10 11 12 13 14 15 16 17 18 19 20
$  1  1  8  9  9 10  8  8  8  9 10 20 20 20 20 20 20 20 20 20 20
$  2  8  2 11 12 11  8  8  8 20 20 11 12 20 20 20 20 20 20 20 20
$  3  9 11  3  9 11 13 14 20  9 20 11 20 13 14 20 20 20 20 20 20
$  4  9 12  9  4 15 16 17 20  9 20 20 12 20 20 15 16 17 20 20 20
$  5 10 11 11 15  5 18 19 20 20 10 11 20 20 20 15 20 20 18 19 20
$  6  8  8 13 16 18  6  8  8 20 20 20 20 13 20 20 16 20 18 20 20
$  7  8  8 14 17 19  8  7  8 20 20 20 20 20 14 20 20 17 20 19 20
$  8  8  8 20 20 20  8  8  8 20 20 20 20 20 20 20 20 20 20 20 20
$  9  9 20  9  9 20 20 20 20  9 20 20 20 20 20 20 20 20 20 20 20
$ 10 10 20 20 20 10 20 20 20 20 10 20 20 20 20 20 20 20 20 20 20
$ 11 20 11 11 20 11 20 20 20 20 20 11 20 20 20 20 20 20 20 20 20
$ 12 20 12 20 12 20 20 20 20 20 20 20 12 20 20 20 20 20 20 20 20
$ 13 20 20 13 20 20 13 20 20 20 20 20 20 13 20 20 20 20 20 20 20
$ 14 20 20 14 20 20 20 14 20 20 20 20 20 20 14 20 20 20 20 20 20
$ 15 20 20 20 15 15 20 20 20 20 20 20 20 20 20 15 20 20 20 20 20
$ 16 20 20 20 16 20 16 20 20 20 20 20 20 20 20 20 16 20 20 20 20
$ 17 20 20 20 17 20 20 17 20 20 20 20 20 20 20 20 20 17 20 20 20
$ 18 20 20 20 20 18 18 20 20 20 20 20 20 20 20 20 20 20 18 20 20
$ 19 20 20 20 20 19 20 19 20 20 20 20 20 20 20 20 20 20 20 19 20
$ 20 20 20 20 20 20 20 20 20 20 20 20 20 20 20 20 20 20 20 20 20

letting M_FunctionND be
        [[0, 0, 0, 0, 0, 0, 0, 0, 0, 0, 0, 0, 0, 0, 0, 0, 0, 0, 0, 0, 0; int(0..20)],
         [0, 1, 0, 0, 0, 0, 0, 0, 1, 1, 1, 0, 0, 0, 0, 0, 0, 0, 0, 0, 1; int(0..20)],
         [0, 0, 2, 0, 0, 0, 0, 0, 2, 0, 0, 2, 2, 0, 0, 0, 0, 0, 0, 0, 2; int(0..20)],
         [0, 0, 0, 3, 0, 0, 0, 0, 0, 3, 0, 3, 0, 3, 3, 0, 0, 0, 0, 0, 3; int(0..20)],
         [0, 0, 0, 0, 4, 0, 0, 0, 0, 4, 0, 0, 4, 0, 0, 4, 4, 4, 0, 0, 4; int(0..20)],
         [0, 0, 0, 0, 0, 5, 0, 0, 0, 0, 5, 5, 0, 0, 0, 5, 0, 0, 5, 5, 5; int(0..20)],
         [0, 0, 0, 0, 0, 0, 6, 0, 6, 0, 0, 0, 0, 6, 0, 0, 6, 0, 6, 0, 6; int(0..20)],
         [0, 0, 0, 0, 0, 0, 0, 7, 7, 0, 0, 0, 0, 0, 7, 0, 0, 7, 0, 7, 7; int(0..20)],
         [0, 1, 2, 0, 0, 0, 6, 7, 8, 1, 1, 2, 2, 6, 7, 0, 6, 7, 6, 7, 8; int(0..20)],
         [0, 1, 0, 3, 4, 0, 0, 0, 1, 9, 1, 3, 4, 3, 3, 4, 4, 4, 0, 0, 9; int(0..20)],
         [0, 1, 0, 0, 0, 5, 0, 0, 1, 1, 10, 5, 0, 0, 0, 5, 0, 0, 5, 5, 10; int(0..20)],
         [0, 0, 2, 3, 0, 5, 0, 0, 2, 3, 5, 11, 2, 3, 3, 5, 0, 0, 5, 5, 11; int(0..20)],
         [0, 0, 2, 0, 4, 0, 0, 0, 2, 4, 0, 2, 12, 0, 0, 4, 4, 4, 0, 0, 12; int(0..20)],
         [0, 0, 0, 3, 0, 0, 6, 0, 6, 3, 0, 3, 0, 13, 3, 0, 6, 0, 6, 0, 13; int(0..20)],
         [0, 0, 0, 3, 0, 0, 0, 7, 7, 3, 0, 3, 0, 3, 14, 0, 0, 7, 0, 7, 14; int(0..20)],
         [0, 0, 0, 0, 4, 5, 0, 0, 0, 4, 5, 5, 4, 0, 0, 15, 4, 4, 5, 5, 15; int(0..20)],
         [0, 0, 0, 0, 4, 0, 6, 0, 6, 4, 0, 0, 4, 6, 0, 4, 16, 4, 6, 0, 16; int(0..20)],
         [0, 0, 0, 0, 4, 0, 0, 7, 7, 4, 0, 0, 4, 0, 7, 4, 4, 17, 0, 7, 17; int(0..20)],
         [0, 0, 0, 0, 0, 5, 6, 0, 6, 0, 5, 5, 0, 6, 0, 5, 6, 0, 18, 5, 18; int(0..20)],
         [0, 0, 0, 0, 0, 5, 0, 7, 7, 0, 5, 5, 0, 0, 7, 5, 0, 7, 5, 19, 19; int(0..20)],
         [0, 1, 2, 3, 4, 5, 6, 7, 8, 9, 10, 11, 12, 13, 14, 15, 16, 17, 18, 19, 20; int(0..20)];
             int(0..20)]
$ Visualisation for M_FunctionND
$  0  0  0  0  0  0  0  0  0  0  0  0  0  0  0  0  0  0  0  0  0
$  0  1  0  0  0  0  0  0  1  1  1  0  0  0  0  0  0  0  0  0  1
$  0  0  2  0  0  0  0  0  2  0  0  2  2  0  0  0  0  0  0  0  2
$  0  0  0  3  0  0  0  0  0  3  0  3  0  3  3  0  0  0  0  0  3
$  0  0  0  0  4  0  0  0  0  4  0  0  4  0  0  4  4  4  0  0  4
$  0  0  0  0  0  5  0  0  0  0  5  5  0  0  0  5  0  0  5  5  5
$  0  0  0  0  0  0  6  0  6  0  0  0  0  6  0  0  6  0  6  0  6
$  0  0  0  0  0  0  0  7  7  0  0  0  0  0  7  0  0  7  0  7  7
$  0  1  2  0  0  0  6  7  8  1  1  2  2  6  7  0  6  7  6  7  8
$  0  1  0  3  4  0  0  0  1  9  1  3  4  3  3  4  4  4  0  0  9
$  0  1  0  0  0  5  0  0  1  1 10  5  0  0  0  5  0  0  5  5 10
$  0  0  2  3  0  5  0  0  2  3  5 11  2  3  3  5  0  0  5  5 11
$  0  0  2  0  4  0  0  0  2  4  0  2 12  0  0  4  4  4  0  0 12
$  0  0  0  3  0  0  6  0  6  3  0  3  0 13  3  0  6  0  6  0 13
$  0  0  0  3  0  0  0  7  7  3  0  3  0  3 14  0  0  7  0  7 14
$  0  0  0  0  4  5  0  0  0  4  5  5  4  0  0 15  4  4  5  5 15
$  0  0  0  0  4  0  6  0  6  4  0  0  4  6  0  4 16  4  6  0 16
$  0  0  0  0  4  0  0  7  7  4  0  0  4  0  7  4  4 17  0  7 17
$  0  0  0  0  0  5  6  0  6  0  5  5  0  6  0  5  6  0 18  5 18
$  0  0  0  0  0  5  0  7  7  0  5  5  0  0  7  5  0  7  5 19 19
$  0  1  2  3  4  5  6  7  8  9 10 11 12 13 14 15 16 17 18 19 20

letting R_Function1D be [0, 1, 1, 1, 1, 1, 1, 1, 2, 2, 2, 2, 2, 2, 2, 2, 2, 2, 2, 2, 3; int(0..20)]
